3 3 2
30 1 68 0 23 1 35 2 36 0 71 1 57 0 40 1 61 0 77 2 51 1 58 0 32 2 21 1 80 0 76 2 24 0 32 2 54 0 57 2 29 0 4 1 66 0 1 2 93 1 60 0 1 1 62 2 33 0 74 1 12 
30 0 96 2 32 0 44 2 88 1 92 0 66 2 90 0 18 1 43 2 84 1 44 2 28 0 40 1 65 2 9 1 29 0 92 1 89 0 84 2 1 1 49 0 61 1 24 2 85 0 63 1 40 2 30 0 19 2 12 0 29 
30 1 70 2 44 1 91 2 28 1 37 0 29 2 66 0 37 1 32 2 37 0 46 1 67 0 95 1 38 2 73 1 13 0 72 2 65 0 53 1 33 2 30 0 86 1 82 2 61 0 28 1 42 0 81 1 7 0 7 2 19 

-------------
